max : Dx + Dy;

Ax - 1 c1 - 3 c2 - 9 c4 - 1 c5 - 6 c6 - 9 c7 - 1 c8 - 3 c9 - 9 c10 - 1 c11 - 1 c12 - 6 c13 - 9 c14 - 9 c15 - 9 c15 <= Dx;

Ay - 9 c1 - 9 c2 - 9 c4 - 5 c5 - 9 c6 - 5 c7 - 1 c8 - 1 c9 - 1 c10 - 3 c11 - 7 c12 - 1 c13 - 3 c14 - 7 c15 - 7 c15 <= Dy;

1 c1 - 3 c2 - 9 c4 - 1 c5 - 6 c6 - 9 c7 - 1 c8 - 3 c9 - 9 c10 - 1 c11 - 1 c12 - 6 c13 - 9 c14 - 9 c15 - 9 c15 - Ax <= Dx;

9 c1 - 9 c2 - 9 c4 - 5 c5 - 9 c6 - 5 c7 - 1 c8 - 1 c9 - 1 c10 - 3 c11 - 7 c12 - 1 c13 - 3 c14 - 7 c15 - 7 c15 - Ay <= Dy;

Ax - 1 + 20 Sx1 - Dx1 >= 0;
Ax - 1 + 20 Sx1 + Dx1 <= 20;
Ax - 1 <= Dx1;
1 - Ax <= Dx1;

Ay - 9 + 20 Sy1 - Dy1 >= 0;
Ay - 9 + 20 Sy1 + Dy1 <= 20;
Ay - 9 <= Dy1;
9 - Ay <= Dy1;

Ax - 3 + 20 Sx2 - Dx2 >= 0;
Ax - 3 + 20 Sx2 + Dx2 <= 20;
Ax - 3 <= Dx2;
3 - Ax <= Dx2;

Ay - 9 + 20 Sy2 - Dy2 >= 0;
Ay - 9 + 20 Sy2 + Dy2 <= 20;
Ay - 9 <= Dy2;
9 - Ay <= Dy2;

Ax - 9 + 20 Sx4 - Dx4 >= 0;
Ax - 9 + 20 Sx4 + Dx4 <= 20;
Ax - 9 <= Dx4;
9 - Ax <= Dx4;

Ay - 9 + 20 Sy4 - Dy4 >= 0;
Ay - 9 + 20 Sy4 + Dy4 <= 20;
Ay - 9 <= Dy4;
9 - Ay <= Dy4;

Ax - 1 + 20 Sx5 - Dx5 >= 0;
Ax - 1 + 20 Sx5 + Dx5 <= 20;
Ax - 1 <= Dx5;
1 - Ax <= Dx5;

Ay - 5 + 20 Sy5 - Dy5 >= 0;
Ay - 5 + 20 Sy5 + Dy5 <= 20;
Ay - 5 <= Dy5;
5 - Ay <= Dy5;

Ax - 6 + 20 Sx6 - Dx6 >= 0;
Ax - 6 + 20 Sx6 + Dx6 <= 20;
Ax - 6 <= Dx6;
6 - Ax <= Dx6;

Ay - 9 + 20 Sy6 - Dy6 >= 0;
Ay - 9 + 20 Sy6 + Dy6 <= 20;
Ay - 9 <= Dy6;
9 - Ay <= Dy6;

Ax - 9 + 20 Sx7 - Dx7 >= 0;
Ax - 9 + 20 Sx7 + Dx7 <= 20;
Ax - 9 <= Dx7;
9 - Ax <= Dx7;

Ay - 5 + 20 Sy7 - Dy7 >= 0;
Ay - 5 + 20 Sy7 + Dy7 <= 20;
Ay - 5 <= Dy7;
5 - Ay <= Dy7;

Ax - 1 + 20 Sx8 - Dx8 >= 0;
Ax - 1 + 20 Sx8 + Dx8 <= 20;
Ax - 1 <= Dx8;
1 - Ax <= Dx8;

Ay - 1 + 20 Sy8 - Dy8 >= 0;
Ay - 1 + 20 Sy8 + Dy8 <= 20;
Ay - 1 <= Dy8;
1 - Ay <= Dy8;

Ax - 3 + 20 Sx9 - Dx9 >= 0;
Ax - 3 + 20 Sx9 + Dx9 <= 20;
Ax - 3 <= Dx9;
3 - Ax <= Dx9;

Ay - 1 + 20 Sy9 - Dy9 >= 0;
Ay - 1 + 20 Sy9 + Dy9 <= 20;
Ay - 1 <= Dy9;
1 - Ay <= Dy9;

Ax - 9 + 20 Sx10 - Dx10 >= 0;
Ax - 9 + 20 Sx10 + Dx10 <= 20;
Ax - 9 <= Dx10;
9 - Ax <= Dx10;

Ay - 1 + 20 Sy10 - Dy10 >= 0;
Ay - 1 + 20 Sy10 + Dy10 <= 20;
Ay - 1 <= Dy10;
1 - Ay <= Dy10;

Ax - 1 + 20 Sx11 - Dx11 >= 0;
Ax - 1 + 20 Sx11 + Dx11 <= 20;
Ax - 1 <= Dx11;
1 - Ax <= Dx11;

Ay - 3 + 20 Sy11 - Dy11 >= 0;
Ay - 3 + 20 Sy11 + Dy11 <= 20;
Ay - 3 <= Dy11;
3 - Ay <= Dy11;

Ax - 1 + 20 Sx12 - Dx12 >= 0;
Ax - 1 + 20 Sx12 + Dx12 <= 20;
Ax - 1 <= Dx12;
1 - Ax <= Dx12;

Ay - 7 + 20 Sy12 - Dy12 >= 0;
Ay - 7 + 20 Sy12 + Dy12 <= 20;
Ay - 7 <= Dy12;
7 - Ay <= Dy12;

Ax - 6 + 20 Sx13 - Dx13 >= 0;
Ax - 6 + 20 Sx13 + Dx13 <= 20;
Ax - 6 <= Dx13;
6 - Ax <= Dx13;

Ay - 1 + 20 Sy13 - Dy13 >= 0;
Ay - 1 + 20 Sy13 + Dy13 <= 20;
Ay - 1 <= Dy13;
1 - Ay <= Dy13;

Ax - 9 + 20 Sx14 - Dx14 >= 0;
Ax - 9 + 20 Sx14 + Dx14 <= 20;
Ax - 9 <= Dx14;
9 - Ax <= Dx14;

Ay - 3 + 20 Sy14 - Dy14 >= 0;
Ay - 3 + 20 Sy14 + Dy14 <= 20;
Ay - 3 <= Dy14;
3 - Ay <= Dy14;

Ax - 9 + 20 Sx15 - Dx15 >= 0;
Ax - 9 + 20 Sx15 + Dx15 <= 20;
Ax - 9 <= Dx15;
9 - Ax <= Dx15;

Ay - 7 + 20 Sy15 - Dy15 >= 0;
Ay - 7 + 20 Sy15 + Dy15 <= 20;
Ay - 7 <= Dy15;
7 - Ay <= Dy15;

Ax - 9 + 20 Sx15 - Dx15 >= 0;
Ax - 9 + 20 Sx15 + Dx15 <= 20;
Ax - 9 <= Dx15;
9 - Ax <= Dx15;

Ay - 7 + 20 Sy15 - Dy15 >= 0;
Ay - 7 + 20 Sy15 + Dy15 <= 20;
Ay - 7 <= Dy15;
7 - Ay <= Dy15;

c1 + c2 + c3 + c4 + c5 + c6 + c7 + c8 + c9 + c10 + c11 + c12 + c13 + c14 + c15 = 1;
Dx + Dy <= Dx1 + Dy1;
Dx + Dy <= Dx2 + Dy2;
Dx + Dy <= Dx3 + Dy3;
Dx + Dy <= Dx4 + Dy4;
Dx + Dy <= Dx5 + Dy5;
Dx + Dy <= Dx6 + Dy6;
Dx + Dy <= Dx7 + Dy7;
Dx + Dy <= Dx8 + Dy8;
Dx + Dy <= Dx9 + Dy9;
Dx + Dy <= Dx10 + Dy10;
Dx + Dy <= Dx11 + Dy11;
Dx + Dy <= Dx12 + Dy12;
Dx + Dy <= Dx13 + Dy13;
Dx + Dy <= Dx14 + Dy14;
Dx + Dy <= Dx15 + Dy15;

0 <= Ax <= 9;
0 <= Ay <= 9;

Dx >= 0;
Dy >= 0;

Dx1 >= 0;
Dy1 >= 0;
Dx2 >= 0;
Dy2 >= 0;
Dx3 >= 0;
Dy3 >= 0;
Dx4 >= 0;
Dy4 >= 0;
Dx5 >= 0;
Dy5 >= 0;
Dx6 >= 0;
Dy6 >= 0;
Dx7 >= 0;
Dy7 >= 0;
Dx8 >= 0;
Dy8 >= 0;
Dx9 >= 0;
Dy9 >= 0;
Dx10 >= 0;
Dy10 >= 0;
Dx11 >= 0;
Dy11 >= 0;
Dx12 >= 0;
Dy12 >= 0;
Dx13 >= 0;
Dy13 >= 0;
Dx14 >= 0;
Dy14 >= 0;
Dx15 >= 0;
Dy15 >= 0;

bin Sx1 , Sx2 , Sx3 , Sx4 , Sx5 , Sx6 , Sx7 , Sx8 , Sx9 , Sx10 , Sx11 , Sx12 , Sx13 , Sx14 , Sx15 ; 

bin Sy1 , Sy2 , Sy3 , Sy4 , Sy5 , Sy6 , Sy7 , Sy8 , Sy9 , Sy10 , Sy11 , Sy12 , Sy13 , Sy14 , Sy15 ; 

bin c1 , c2 , c3 , c4 , c5 , c6 , c7 , c8 , c9 , c10 , c11 , c12 , c13 , c14 , c15 ; 
